(declare-fun temp534_1 () (_ BitVec 64))
(declare-fun var2166536 () (_ BitVec 64))
(declare-fun temp534_3 () (_ BitVec 64))
(declare-fun temp534_2 () (_ BitVec 64))
(declare-fun temp534_4 () (_ BitVec 64))
(declare-fun var4659636 () (_ BitVec 64))
(declare-fun temp534_5 () (_ BitVec 64))
(declare-fun var5637942 () (_ BitVec 64))
(declare-fun var5837020 () (_ BitVec 64))
(declare-fun temp534_6 () (_ BitVec 64))
(declare-fun var6033751 () (_ BitVec 64))
(declare-fun temp534_7 () (_ BitVec 64))
(declare-fun var6033752 () (_ BitVec 64))
(declare-fun temp534_9 () (_ BitVec 64))
(declare-fun temp534_8 () (_ BitVec 64))
(declare-fun temp534_10 () (_ BitVec 64))
(declare-fun var7084065 () (_ BitVec 64))
(declare-fun temp534_12 () (_ BitVec 64))
(declare-fun temp534_11 () (_ BitVec 64))
(declare-fun temp534_13 () (_ BitVec 64))
(declare-fun var7342120 () (_ BitVec 64))
(declare-fun temp534_14 () (_ BitVec 64))
(declare-fun var7342162 () (_ BitVec 64))
(declare-fun temp534_16 () (_ BitVec 64))
(declare-fun temp534_15 () (_ BitVec 64))
(declare-fun temp534_17 () (_ BitVec 64))
(declare-fun var8063992 () (_ BitVec 64))
(declare-fun var7342107 () (_ BitVec 64))
(declare-fun var7342106 () (_ BitVec 64))
(declare-fun temp534_18 () (_ BitVec 64))
(declare-fun var7342111 () (_ BitVec 64))
(declare-fun temp534_19 () (_ BitVec 64))
(declare-fun var7342113 () (_ BitVec 64))
(declare-fun temp534_20 () (_ BitVec 64))
(declare-fun temp534_21 () (_ BitVec 64))
(declare-fun var8457370 () (_ BitVec 64))
(declare-fun var8849614 () (_ BitVec 64))
(declare-fun temp534_22 () (_ BitVec 64))
(declare-fun var8849691 () (_ BitVec 64))
(declare-fun var8849612 () (_ BitVec 64))
(declare-fun var7084122 () (_ BitVec 64))
(declare-fun var7084123 () (_ BitVec 64))
(declare-fun temp534_23 () (_ BitVec 64))
(declare-fun var9572997 () (_ BitVec 64))
(declare-fun var9573001 () (_ BitVec 64))
(declare-fun var9573002 () (_ BitVec 64))
(declare-fun var9704152 () (_ BitVec 64))
(declare-fun var9704153 () (_ BitVec 64))
(assert (= temp534_1 #x0000000000000005))
(assert (= var2166536 temp534_1))
(assert (= temp534_3 #x0000000000000000))
(assert (= temp534_2 temp534_3))
(assert (= temp534_4 #x0000000000000000))
(assert (= var4659636 temp534_4))
(assert (= temp534_5 #x0000000000000001))
(assert (= var5637942 temp534_5))
(assert (= var5837020 var5637942))
(assert (= temp534_6 #x0000000000000000))
(assert (= var6033751 temp534_6))
(assert (= temp534_7 #x0000000000000000))
(assert (= var6033752 temp534_7))
(assert (= temp534_9 #x0000000000000000))
(assert (= temp534_8 temp534_9))
(assert (= temp534_10 #x0000000000000000))
(assert (= var7084065 temp534_10))
(assert (= temp534_12 #x0000000000000000))
(assert (= temp534_11 temp534_12))
(assert (= temp534_13 #x0000000000000000))
(assert (= var7342120 temp534_13))
(assert (= temp534_14 #x0000000000000001))
(assert (= var7342162 temp534_14))
(assert (= temp534_16 #x0000000000000000))
(assert (= temp534_15 temp534_16))
(assert (= temp534_17 #x0000000000000001))
(assert (= var8063992 temp534_17))
(assert (= var7342107 var7342162))
(assert (= var7342106 var7342107))
(assert (= temp534_18 #x0000000000000001))
(assert (= var7342111 (bvand var7342106 temp534_18)))
(assert (= temp534_19 #x0000000000000000))
(assert (= var7342113
   (ite (= var7342111 temp534_19) #x0000000000000001 #x0000000000000000)))
(assert (= temp534_20 #x0000000000000000))
(assert (= var7342113 temp534_20))
(assert (= temp534_21 #x0000000000000000))
(assert (= var8457370 temp534_21))
(assert (= var8849614 var7084065))
(assert (= temp534_22 #x0000000000000001))
(assert (= var8849691 temp534_22))
(assert (= var8849612 var8849691))
(assert (= var7084122 var8849612))
(assert (= var7084123 var7084122))
(assert (= temp534_23 #x0000000000000004))
(assert (= var9572997 temp534_23))
(assert (= var9573001 var7084123))
(assert (= var9573002 var7084065))
(assert (= var9704152 var9573001))
(assert (= var9704153 var9573002))
(model-add temp534_1 () (_ BitVec 64) #x0000000000000005)
(model-add var2166536 () (_ BitVec 64) #x0000000000000005)
(model-add temp534_3 () (_ BitVec 64) #x0000000000000000)
(model-add temp534_2 () (_ BitVec 64) #x0000000000000000)
(model-add temp534_4 () (_ BitVec 64) #x0000000000000000)
(model-add var4659636 () (_ BitVec 64) #x0000000000000000)
(model-add temp534_5 () (_ BitVec 64) #x0000000000000001)
(model-add var5637942 () (_ BitVec 64) #x0000000000000001)
(model-add var5837020 () (_ BitVec 64) #x0000000000000001)
(model-add temp534_6 () (_ BitVec 64) #x0000000000000000)
(model-add var6033751 () (_ BitVec 64) #x0000000000000000)
(model-add temp534_7 () (_ BitVec 64) #x0000000000000000)
(model-add var6033752 () (_ BitVec 64) #x0000000000000000)
(model-add temp534_9 () (_ BitVec 64) #x0000000000000000)
(model-add temp534_8 () (_ BitVec 64) #x0000000000000000)
(model-add temp534_10 () (_ BitVec 64) #x0000000000000000)
(model-add var7084065 () (_ BitVec 64) #x0000000000000000)
(model-add temp534_12 () (_ BitVec 64) #x0000000000000000)
(model-add temp534_11 () (_ BitVec 64) #x0000000000000000)
(model-add temp534_13 () (_ BitVec 64) #x0000000000000000)
(model-add var7342120 () (_ BitVec 64) #x0000000000000000)
(model-add temp534_14 () (_ BitVec 64) #x0000000000000001)
(model-add var7342162 () (_ BitVec 64) #x0000000000000001)
(model-add temp534_16 () (_ BitVec 64) #x0000000000000000)
(model-add temp534_15 () (_ BitVec 64) #x0000000000000000)
(model-add temp534_17 () (_ BitVec 64) #x0000000000000001)
(model-add var8063992 () (_ BitVec 64) #x0000000000000001)
(model-add var7342107 () (_ BitVec 64) #x0000000000000001)
(model-add var7342106 () (_ BitVec 64) #x0000000000000001)
(model-add temp534_18 () (_ BitVec 64) #x0000000000000001)
(model-add var7342111 () (_ BitVec 64) #x0000000000000001)
(model-add temp534_19 () (_ BitVec 64) #x0000000000000000)
(model-add var7342113 () (_ BitVec 64) #x0000000000000000)
(model-add temp534_20 () (_ BitVec 64) #x0000000000000000)






